n_res = 4;
rc = [ 8, 13, 11, 10 ];
n_tasks = 30;
d = [ 2, 3, 6, 8, 3, 2, 2, 1, 8, 4, 3, 2, 7, 6, 8, 5, 6, 8, 5, 2, 1, 3, 6, 5, 10, 8, 5, 5, 8, 6 ];
rr = [| 0, 0, 0, 8, 0, 0, 0, 0, 0, 0, 0, 0, 4, 0, 0, 0, 0, 0, 0, 0, 8, 0, 0, 0, 0, 0, 0, 0, 5, 0
      | 10, 3, 0, 0, 6, 8, 9, 5, 10, 5, 0, 1, 0, 0, 0, 0, 0, 0, 8, 0, 0, 0, 0, 1, 0, 4, 0, 0, 0, 0
      | 0, 0, 9, 0, 0, 0, 0, 0, 0, 0, 0, 0, 0, 5, 8, 1, 0, 7, 0, 8, 0, 0, 0, 0, 0, 0, 1, 8, 0, 0
      | 0, 0, 0, 0, 0, 0, 0, 0, 0, 0, 5, 0, 0, 0, 0, 0, 9, 0, 0, 0, 0, 1, 4, 0, 9, 0, 0, 0, 0, 6 |];
suc = [ { 2 }, 
        { 1 }, 
        { 4 }, 
        { 3 }, 
        { 6 }, 
        { 5 }, 
        { 8 }, 
        { 7 }, 
        { 10 }, 
        { 9 }, 
        { 12 }, 
        { 11 }, 
        { 14 }, 
        { 13 }, 
        { 16 }, 
        { 15 }, 
        { 18 }, 
        { 17 }, 
        { 20 }, 
        { 19 }, 
        { 22 }, 
        { 21 }, 
        { 24 }, 
        { 23 }, 
        { 26 }, 
        { 25 }, 
        { 28 }, 
        { 27 }, 
        { 30 }, 
        { 29 }]; 
